\ Model Portfolio Optimization Problem with Time-Dependent Costs
\ LP format - for model browsing. Use MPS format to capture full model detail.
Minimize
  2.066134631923611 x[0,0,0] + 12.61190930412268 x[0,0,1]
   + 31.80489847734462 x[0,0,2] + 11.15860884930301 x[0,1,0]
   + 63.22602784072014 x[0,1,1] + 47.63982390601885 x[0,1,2]
   + 66.38172199866865 x[0,2,0] + 30.58339932115224 x[0,2,1]
   + 13.36158479440724 x[0,2,2] + 74.54826134736489 x[0,3,0]
   + 45.98237558613705 x[0,3,1] + 7.969870575833765 x[0,3,2]
   + 97.92030299209635 x[1,0,0] + 91.14011027873065 x[1,0,1]
   + 34.79634184128278 x[1,0,2] + 27.93817598372177 x[1,1,0]
   + 98.80798134994649 x[1,1,1] + 38.7686693590862 x[1,1,2]
   + 89.22055801965135 x[1,2,0] + 12.17091968702477 x[1,2,1]
   + 47.18604276452322 x[1,2,2] + 58.91287885365742 x[1,3,0]
   + 87.74798993219663 x[1,3,1] + 69.45225538078775 x[1,3,2]
   + 79.65110577078988 x[2,0,0] + 76.08749376102973 x[2,0,1]
   + 23.23870803237774 x[2,0,2] + 11.20196638829054 x[2,1,0]
   + 99.76292538228758 x[2,1,1] + 60.72829076657972 x[2,1,2]
   + 60.30565120014117 x[2,2,0] + 36.89238874530766 x[2,2,1]
   + 87.06676748504174 x[2,2,2] + 66.82615046172327 x[2,3,0]
   + 83.83420259846973 x[2,3,1] + 96.36119748514335 x[2,3,2]
   + 42.74573766893594 x[3,0,0] + 64.16793083707853 x[3,0,1]
   + 86.65155711192348 x[3,0,2] + 28.74015291325878 x[3,1,0]
   + 72.6811843925105 x[3,1,1] + 28.31069796955886 x[3,1,2]
   + 25.9154096870592 x[3,2,0] + 51.27453161443871 x[3,2,1]
   + 42.54489055298917 x[3,2,2] + 83.79332848544163 x[3,3,0]
   + 98.32557448975345 x[3,3,1] + 9.226242656109363 x[3,3,2]
   + 11.0119672760104 x[4,0,0] + 80.79315744392072 x[4,0,1]
   + 25.03167770052423 x[4,0,2] + 50.00263217775095 x[4,1,0]
   + 59.51735944258373 x[4,1,1] + 66.89722024880098 x[4,1,2]
   + 11.29257992456072 x[4,2,0] + 78.31127080172168 x[4,2,1]
   + 71.14437976701807 x[4,2,2] + 56.50640527201757 x[4,3,0]
   + 83.90379060057094 x[4,3,1] + 38.20641166013594 x[4,3,2]
Subject To
 supply_0: x[0,0,0] + x[0,0,1] + x[0,0,2] + x[0,1,0] + x[0,1,1] + x[0,1,2]
   + x[0,2,0] + x[0,2,1] + x[0,2,2] + x[0,3,0] + x[0,3,1] + x[0,3,2]
   <= 3485.960843145571
 supply_1: x[1,0,0] + x[1,0,1] + x[1,0,2] + x[1,1,0] + x[1,1,1] + x[1,1,2]
   + x[1,2,0] + x[1,2,1] + x[1,2,2] + x[1,3,0] + x[1,3,1] + x[1,3,2]
   <= 9033.746500409878
 supply_2: x[2,0,0] + x[2,0,1] + x[2,0,2] + x[2,1,0] + x[2,1,1] + x[2,1,2]
   + x[2,2,0] + x[2,2,1] + x[2,2,2] + x[2,3,0] + x[2,3,1] + x[2,3,2]
   <= 2111.242797477622
 supply_3: x[3,0,0] + x[3,0,1] + x[3,0,2] + x[3,1,0] + x[3,1,1] + x[3,1,2]
   + x[3,2,0] + x[3,2,1] + x[3,2,2] + x[3,3,0] + x[3,3,1] + x[3,3,2]
   <= 7656.894864688572
 supply_4: x[4,0,0] + x[4,0,1] + x[4,0,2] + x[4,1,0] + x[4,1,1] + x[4,1,2]
   + x[4,2,0] + x[4,2,1] + x[4,2,2] + x[4,3,0] + x[4,3,1] + x[4,3,2]
   <= 9499.069951853571
 demand_0: x[0,0,0] + x[0,0,1] + x[0,0,2] + x[1,0,0] + x[1,0,1] + x[1,0,2]
   + x[2,0,0] + x[2,0,1] + x[2,0,2] + x[3,0,0] + x[3,0,1] + x[3,0,2]
   + x[4,0,0] + x[4,0,1] + x[4,0,2] >= 2366.615815851686
 demand_1: x[0,1,0] + x[0,1,1] + x[0,1,2] + x[1,1,0] + x[1,1,1] + x[1,1,2]
   + x[2,1,0] + x[2,1,1] + x[2,1,2] + x[3,1,0] + x[3,1,1] + x[3,1,2]
   + x[4,1,0] + x[4,1,1] + x[4,1,2] >= 4990.432197464078
 demand_2: x[0,2,0] + x[0,2,1] + x[0,2,2] + x[1,2,0] + x[1,2,1] + x[1,2,2]
   + x[2,2,0] + x[2,2,1] + x[2,2,2] + x[3,2,0] + x[3,2,1] + x[3,2,2]
   + x[4,2,0] + x[4,2,1] + x[4,2,2] >= 7050.142619604115
 demand_3: x[0,3,0] + x[0,3,1] + x[0,3,2] + x[1,3,0] + x[1,3,1] + x[1,3,2]
   + x[2,3,0] + x[2,3,1] + x[2,3,2] + x[3,3,0] + x[3,3,1] + x[3,3,2]
   + x[4,3,0] + x[4,3,1] + x[4,3,2] >= 7845.261357331462
Bounds
End
